GLPSOL--GLPK LP/MIP Solver 5.0
Parameter(s) specified in the command line:
 --lp ../modeles/2_459.lp --log 2_459.log
Reading problem data from '../modeles/2_459.lp'...
927 rows, 1840 columns, 6436 non-zeros
918 integer variables, all of which are binary
2775 lines were read
GLPK Integer Optimizer 5.0
927 rows, 1840 columns, 6436 non-zeros
918 integer variables, all of which are binary
Preprocessing...
908 constraint coefficient(s) were reduced
927 rows, 1838 columns, 6434 non-zeros
918 integer variables, all of which are binary
Scaling...
 A: min|aij| =  1.899e-05  max|aij| =  4.000e+00  ratio =  2.107e+05
GM: min|aij| =  4.668e-02  max|aij| =  2.142e+01  ratio =  4.590e+02
EQ: min|aij| =  2.179e-03  max|aij| =  1.000e+00  ratio =  4.590e+02
2N: min|aij| =  1.953e-03  max|aij| =  1.770e+00  ratio =  9.063e+02
Constructing initial basis...
Size of triangular part is 927
Solving LP relaxation...
GLPK Simplex Optimizer 5.0
927 rows, 1838 columns, 6434 non-zeros
      0: obj =   4.000000000e+00 inf =   9.500e+00 (5)
     49: obj =   4.999833871e-01 inf =   0.000e+00 (0)
*   185: obj =  -1.414188789e+00 inf =   3.521e-17 (0)
OPTIMAL LP SOLUTION FOUND
Integer optimization begins...
Long-step dual simplex will be used
+   185: mip =     not found yet >=              -inf        (1; 0)
+   188: >>>>>  -1.414188789e+00 >=  -1.414188789e+00   0.0% (4; 0)
+   188: mip =  -1.414188789e+00 >=     tree is empty   0.0% (0; 7)
INTEGER OPTIMAL SOLUTION FOUND
Time used:   0.0 secs
Memory used: 2.7 Mb (2843448 bytes)
